\ This file was automatically generated by Zimpl
\ var x1 >= 0;
\ var x2 >= 0;
\ var x3 >= 0;
\ var c6 >= 0;
\ maximize Z:      -5*x1 + 5*x2 + 13*x3 + 10*c6;
\ subto c1:     -1*x1 + 1*x2 + 3*x3 + 3*c6 <= 20;
\ subto c2:     12*x1 + 4*x2 + 10*x3 + 5*c6 <= 90;
\Problem name: pp
Maximize
 Z:  -5 x1 +5 x2 +13 x3 +10 c6
Subject to
 c1_1:
  +3 c6 +3 x3 + x2 - x1 <= 20
 c2_1:
  +5 c6 +10 x3 +4 x2 +12 x1 <= 90
Bounds
 0 <= x1 <= +inf
 0 <= x2 <= +inf
 0 <= x3 <= +inf
 0 <= c6 <= +inf
End
